500
1000
700
698
698
697
697
697
696
695
693
692
691
690
689
687
685
685
684
683
683
683
682
681
679
676
674
673
672
670
667
667
665
664
662
662
661
661
660
660
659
656
656
655
654
654
652
652
652
650
649
649
648
646
645
644
644
643
640
638
637
636
636
635
630
630
628
627
627
625
624
623
623
623
623
622
622
622
619
618
616
614
614
613
612
609
608
606
604
603
600
598
598
597
595
594
594
593
592
591
590
588
588
586
585
582
581
580
579
577
577
575
574
574
574
572
572
572
571
568
566
563
562
560
558
558
558
557
556
555
555
555
551
547
546
545
544
543
543
543
540
540
539
539
535
534
534
534
531
529
528
526
524
524
522
519
519
517
517
516
516
516
510
509
508
508
508
507
506
504
503
503
502
502
500
500
499
498
497
495
492
490
489
488
488
487
487
485
481
481
481
481
479
475
469
469
469
468
467
465
464
464
462
462
460
460
458
457
456
452
452
451
447
446
445
445
444
442
442
439
439
437
437
437
436
435
433
432
429
427
426
424
423
423
423
423
420
420
420
420
419
418
417
415
414
410
410
409
408
407
406
403
401
399
399
398
394
392
391
390
390
389
389
389
386
385
383
380
376
376
375
373
372
372
371
371
371
366
366
366
365
364
362
361
358
357
356
351
349
348
348
348
345
345
344
344
343
342
338
337
336
335
335
334
332
326
323
321
321
320
318
318
312
311
309
308
307
307
306
304
302
298
297
296
296
296
293
292
292
292
289
289
288
287
285
284
284
284
282
281
280
279
278
278
276
276
274
270
269
269
268
266
265
265
259
258
258
257
256
256
253
248
247
246
246
244
243
243
241
239
238
237
237
237
237
236
236
234
234
233
232
228
228
225
223
222
222
221
220
219
219
218
217
216
215
214
213
212
211
208
208
207
207
206
202
200
200
200
198
197
197
196
195
193
192
192
191
190
189
189
184
184
183
182
178
177
174
173
172
171
170
170
169
169
167
166
163
161
158
155
154
153
150
149
149
147
146
144
144
143
143
142
142
142
142
141
141
140
140
140
140
138
136
135
135
134
132
132
128
128
125
124
124
124
123
123
122
121
121
120
119
118
118
118
118
117
116
115
114
114
113
113
112
110
108
107
106
105
103
102
102
101
